0	88	153	196	185	109	136	184	149	108	66	
150	0	46	152	148	192	89	104	106	104	47	
199	27	0	20	168	74	41	200	109	190	200	
177	66	166	0	136	86	96	83	98	45	190	
165	100	187	192	0	166	131	133	165	61	38	
112	150	64	149	44	0	174	35	67	43	37	
64	97	195	192	49	142	0	157	73	64	111	
193	166	167	110	32	125	32	0	75	191	85	
91	190	55	137	99	138	188	180	0	38	148	
187	177	91	124	91	110	61	200	174	0	25	
150	156	115	186	48	185	85	132	182	152	0	
